100
94 369
986 377
561 889
217 752
959 867
246 849
243 31
919 657
51 451
146 145
528 395
801 882
676 360
799 952
493 382
859 396
749 170
712 709
292 288
140 426
208 695
437 370
269 424
344 288
492 315
124 755
56 711
119 531
45 754
174 718
43 251
595 646
155 86
21 993
334 489
462 255
79 516
945 971
54 95
592 687
866 178
250 804
701 135
105 888
804 508
476 815
955 453
148 162
835 284
12 696
695 842
20 197
668 273
127 577
728 866
51 194
584 134
333 410
928 55
106 554
571 392
399 502
475 591
733 222
220 944
893 309
536 186
39 626
112 695
402 352
243 968
980 310
794 567
655 366
186 187
43 45
795 529
381 737
417 783
503 261
111 568
801 979
884 39
170 409
737 427
970 38
226 957
235 625
903 548
752 686
477 247
527 413
373 138
192 605
30 471
551 605
7 871
642 144
347 299
224 340
